p cnf 83 281
-7 1 0
-7 2 0
7 -1 -2 0
-8 1 0
-8 3 0
8 -1 -3 0
-9 1 0
-9 4 0
9 -1 -4 0
-10 1 0
-10 5 0
10 -1 -5 0
-11 1 0
-11 6 0
11 -1 -6 0
-12 2 0
-12 3 0
12 -2 -3 0
-13 2 0
-13 4 0
13 -2 -4 0
-14 2 0
-14 5 0
14 -2 -5 0
-15 2 0
-15 6 0
15 -2 -6 0
-16 3 0
-16 4 0
16 -3 -4 0
-17 3 0
-17 5 0
17 -3 -5 0
-18 3 0
-18 6 0
18 -3 -6 0
-19 4 0
-19 5 0
19 -4 -5 0
-20 4 0
-20 6 0
20 -4 -6 0
-21 5 0
-21 6 0
21 -5 -6 0
22 0
1 -22 23 0
-1 -22 -23 0
1 -23 22 0
-1 22 23 0
2 -23 24 0
-2 -23 -24 0
2 -24 23 0
-2 23 24 0
5 -24 25 0
-5 -24 -25 0
5 -25 24 0
-5 24 25 0
6 -25 26 0
-6 -25 -26 0
6 -26 25 0
-6 25 26 0
7 -26 27 0
-7 -26 -27 0
7 -27 26 0
-7 26 27 0
8 -27 28 0
-8 -27 -28 0
8 -28 27 0
-8 27 28 0
9 -28 29 0
-9 -28 -29 0
9 -29 28 0
-9 28 29 0
11 -29 30 0
-11 -29 -30 0
11 -30 29 0
-11 29 30 0
16 -30 31 0
-16 -30 -31 0
16 -31 30 0
-16 30 31 0
19 -31 32 0
-19 -31 -32 0
19 -32 31 0
-19 31 32 0
21 -32 33 0
-21 -32 -33 0
21 -33 32 0
-21 32 33 0
-33 0
-34 0
2 -34 35 0
-2 -34 -35 0
2 -35 34 0
-2 34 35 0
3 -35 36 0
-3 -35 -36 0
3 -36 35 0
-3 35 36 0
4 -36 37 0
-4 -36 -37 0
4 -37 36 0
-4 36 37 0
5 -37 38 0
-5 -37 -38 0
5 -38 37 0
-5 37 38 0
6 -38 39 0
-6 -38 -39 0
6 -39 38 0
-6 38 39 0
7 -39 40 0
-7 -39 -40 0
7 -40 39 0
-7 39 40 0
9 -40 41 0
-9 -40 -41 0
9 -41 40 0
-9 40 41 0
10 -41 42 0
-10 -41 -42 0
10 -42 41 0
-10 41 42 0
12 -42 43 0
-12 -42 -43 0
12 -43 42 0
-12 42 43 0
16 -43 44 0
-16 -43 -44 0
16 -44 43 0
-16 43 44 0
19 -44 45 0
-19 -44 -45 0
19 -45 44 0
-19 44 45 0
21 -45 46 0
-21 -45 -46 0
21 -46 45 0
-21 45 46 0
-46 0
-47 0
2 -47 48 0
-2 -47 -48 0
2 -48 47 0
-2 47 48 0
6 -48 49 0
-6 -48 -49 0
6 -49 48 0
-6 48 49 0
8 -49 50 0
-8 -49 -50 0
8 -50 49 0
-8 49 50 0
17 -50 51 0
-17 -50 -51 0
17 -51 50 0
-17 50 51 0
18 -51 52 0
-18 -51 -52 0
18 -52 51 0
-18 51 52 0
21 -52 53 0
-21 -52 -53 0
21 -53 52 0
-21 52 53 0
-53 0
-54 0
4 -54 55 0
-4 -54 -55 0
4 -55 54 0
-4 54 55 0
5 -55 56 0
-5 -55 -56 0
5 -56 55 0
-5 55 56 0
8 -56 57 0
-8 -56 -57 0
8 -57 56 0
-8 56 57 0
9 -57 58 0
-9 -57 -58 0
9 -58 57 0
-9 57 58 0
11 -58 59 0
-11 -58 -59 0
11 -59 58 0
-11 58 59 0
13 -59 60 0
-13 -59 -60 0
13 -60 59 0
-13 59 60 0
15 -60 61 0
-15 -60 -61 0
15 -61 60 0
-15 60 61 0
16 -61 62 0
-16 -61 -62 0
16 -62 61 0
-16 61 62 0
18 -62 63 0
-18 -62 -63 0
18 -63 62 0
-18 62 63 0
-63 0
-64 0
1 -64 65 0
-1 -64 -65 0
1 -65 64 0
-1 64 65 0
2 -65 66 0
-2 -65 -66 0
2 -66 65 0
-2 65 66 0
4 -66 67 0
-4 -66 -67 0
4 -67 66 0
-4 66 67 0
5 -67 68 0
-5 -67 -68 0
5 -68 67 0
-5 67 68 0
6 -68 69 0
-6 -68 -69 0
6 -69 68 0
-6 68 69 0
7 -69 70 0
-7 -69 -70 0
7 -70 69 0
-7 69 70 0
8 -70 71 0
-8 -70 -71 0
8 -71 70 0
-8 70 71 0
11 -71 72 0
-11 -71 -72 0
11 -72 71 0
-11 71 72 0
12 -72 73 0
-12 -72 -73 0
12 -73 72 0
-12 72 73 0
15 -73 74 0
-15 -73 -74 0
15 -74 73 0
-15 73 74 0
19 -74 75 0
-19 -74 -75 0
19 -75 74 0
-19 74 75 0
20 -75 76 0
-20 -75 -76 0
20 -76 75 0
-20 75 76 0
-76 0
-77 0
2 -77 78 0
-2 -77 -78 0
2 -78 77 0
-2 77 78 0
5 -78 79 0
-5 -78 -79 0
5 -79 78 0
-5 78 79 0
6 -79 80 0
-6 -79 -80 0
6 -80 79 0
-6 79 80 0
9 -80 81 0
-9 -80 -81 0
9 -81 80 0
-9 80 81 0
13 -81 82 0
-13 -81 -82 0
13 -82 81 0
-13 81 82 0
19 -82 83 0
-19 -82 -83 0
19 -83 82 0
-19 82 83 0
-83 0
